language Essence 1.3

letting class be function(1 --> 1, 2 --> 4, 3 --> 1, 4 --> 1, 5 --> 2, 6 --> 2, 7 --> 4, 8 --> 3)
letting deck_length be 33
letting deck_width be 71
letting length be function(1 --> 19, 2 --> 21, 3 --> 21, 4 --> 33, 5 --> 29, 6 --> 20, 7 --> 7, 8 --> 13)
letting n_classes be 4
letting n_containers be 8
letting separation be function()
letting width be function(1 --> 1, 2 --> 14, 3 --> 1, 4 --> 24, 5 --> 5, 6 --> 3, 7 --> 1, 8 --> 1)
